22475
1 0 0 0 0 1 0 0 0 0 0 1 0 1 1 0 0 1 0 0 1 0 0 0 1 0 0 0 0 0 
20 24 20 14 20 11 11 24 17 17 11 13 14 13 11 14 14 0 0 17 14 0 5 11 24 20 17 5 11 24 5 11 13 5 20 13 5 5 17 14 0 20 5 14 17 14 5 13 17 14 0 17 17 5 13 13 17 11 0 14 0 5 20 0 17 11 11 17 24 11 20 13 5 17 24 14 5 20 17 5 20 14 13 17 0 17 0 11 20 24 24 24 0 0 0 5 20 11 0 20 13 17 14 11 11 5 20 14 20 20 11 14 0 11 5 0 5 24 24 24 24 20 5 20 20 24 24 17 0 0 0 0 5 11 20 14 17 5 13 11 14 14 20 17 14 5 24 24 0 5 
